nbObj= 50;
Capacity= 1150;
Profit =[ 52,72,60,95,80,44,25,68,25,13,86,52,15,7,6,60,61,9,25,10,34,49,18,4,82,28,94,31,40,17,90,57,88,48,17,33,57,41,66,47,53,50,98,33,56,3,92,16,78,16];
Weight =[ 52,72,60,95,80,44,25,68,25,13,86,52,15,7,6,60,61,9,25,10,34,49,18,4,82,28,94,31,40,17,90,57,88,48,17,33,57,41,66,47,53,50,98,33,56,3,92,16,78,16];
